[2026-03-24T13:54:59.475Z] Pipeline "set_vm-4-t1_vm-4-t1_s000_g003" → 2026_03_24_13_54_59_set_vm-4-t1_vm-4-t1_s000_g003_max.sol
Set parameter Username
Set parameter LicenseID to value 2797659
Set parameter LogFile to value "gurobi.log"
Using license file /opt/gurobi/gurobi.lic
Academic license - for non-commercial use only - expires 2027-03-24

Gurobi Optimizer version 13.0.1 build v13.0.1rc0 (linux64 - "Ubuntu 24.04.4 LTS")
Copyright (c) 2026, Gurobi Optimization, LLC

Warning: Duplicate section found (read 'binary') - Is a variable name equal to an LP file format keyword?
Warning: Duplicate section found (read 'binary') - Is a variable name equal to an LP file format keyword?
Warning: Duplicate section found (read 'binary') - Is a variable name equal to an LP file format keyword?
Warning: Duplicate section found (read 'binary') - Is a variable name equal to an LP file format keyword?
Warning: Duplicate section found (read 'binary') - Is a variable name equal to an LP file format keyword?
Warning: Duplicate section found (read 'binary') - Is a variable name equal to an LP file format keyword?
Warning: Duplicate section found (read 'binary') - Is a variable name equal to an LP file format keyword?
Warning: Duplicate section found (read 'binary') - Is a variable name equal to an LP file format keyword?
Warning: Duplicate section found (read 'binary') - Is a variable name equal to an LP file format keyword?
Warning: Duplicate section found (read 'binary') - Is a variable name equal to an LP file format keyword?
Warning: Further warnings of this type will be omitted.
Read LP format model from file /root/bgw/data/uploads/2026_03_24_13_54_59_set_vm-4-t1_vm-4-t1_s000_g003_max.lp
Reading time = 0.01 seconds
: 8654 rows, 563 columns, 26376 nonzeros

Using Gurobi shared library /opt/gurobi1301/linux64/lib/libgurobi.so.13.0.1

CPU model: AMD EPYC-Genoa Processor, instruction set [SSE2|AVX|AVX2|AVX512]
Thread count: 16 physical cores, 16 logical processors, using up to 16 threads

Optimize a model with 8654 rows, 563 columns and 26376 nonzeros (Max)
Model fingerprint: 0x383b81ab
Model has 32 linear objective coefficients
Variable types: 62 continuous, 501 integer (501 binary)
Coefficient statistics:
  Matrix range     [1e+00, 3e+01]
  Objective range  [1e+00, 1e+00]
  Bounds range     [1e+00, 1e+00]
  RHS range        [1e+00, 3e+01]

Found heuristic solution: objective 32.0000000
Presolve removed 488 rows and 101 columns
Presolve time: 0.03s
Presolved: 8166 rows, 462 columns, 24714 nonzeros
Variable types: 0 continuous, 462 integer (454 binary)
Found heuristic solution: objective 33.0000000

Root relaxation: objective 1.720000e+02, 437 iterations, 0.03 seconds (0.04 work units)

    Nodes    |    Current Node    |     Objective Bounds      |     Work
 Expl Unexpl |  Obj  Depth IntInf | Incumbent    BestBd   Gap | It/Node Time

     0     0  172.00000    0   39   33.00000  172.00000   421%     -    0s
H    0     0                      66.0000000  172.00000   161%     -    0s
H    0     0                      80.0000000  172.00000   115%     -    0s
H    0     0                      87.0000000  172.00000  97.7%     -    0s
     0     0  172.00000    0   50   87.00000  172.00000  97.7%     -    0s
     0     0  172.00000    0   46   87.00000  172.00000  97.7%     -    0s
     0     0  172.00000    0   36   87.00000  172.00000  97.7%     -    0s
     0     0  172.00000    0   31   87.00000  172.00000  97.7%     -    0s
     0     0  172.00000    0   34   87.00000  172.00000  97.7%     -    0s
     0     0  172.00000    0   34   87.00000  172.00000  97.7%     -    0s
     0     0  172.00000    0   32   87.00000  172.00000  97.7%     -    0s
     0     0  172.00000    0   33   87.00000  172.00000  97.7%     -    0s
     0     0  172.00000    0   30   87.00000  172.00000  97.7%     -    0s
     0     0  172.00000    0   27   87.00000  172.00000  97.7%     -    0s
     0     0  172.00000    0   34   87.00000  172.00000  97.7%     -    0s
     0     0  172.00000    0   32   87.00000  172.00000  97.7%     -    0s
     0     0  172.00000    0   35   87.00000  172.00000  97.7%     -    0s
     0     0  172.00000    0   32   87.00000  172.00000  97.7%     -    0s
     0     0  172.00000    0   34   87.00000  172.00000  97.7%     -    0s
     0     0  172.00000    0   31   87.00000  172.00000  97.7%     -    0s
     0     0  172.00000    0   32   87.00000  172.00000  97.7%     -    0s
     0     0  172.00000    0   27   87.00000  172.00000  97.7%     -    0s
     0     0  172.00000    0   27   87.00000  172.00000  97.7%     -    0s
     0     0  172.00000    0   27   87.00000  172.00000  97.7%     -    0s
     0     2  172.00000    0   27   87.00000  172.00000  97.7%     -    0s
  3853  1365 infeasible   17        87.00000  148.21429  70.4%   142    5s
  5906  1660 infeasible   29        87.00000  143.14286  64.5%   159   10s
 11103  1282   95.15000   23  121   87.00000  121.61667  39.8%   164   15s
 16172  1339 infeasible   27        87.00000  110.35714  26.8%   172   20s
 22145   184 infeasible   28        87.00000   97.30000  11.8%   183   25s

Cutting planes:
  Cover: 1
  Inf proof: 8

Explored 23184 nodes (4260639 simplex iterations) in 25.89 seconds (62.12 work units)
Thread count was 16 (of 16 available processors)

Solution count 8: 87 87 87 ... 32

Optimal solution found (tolerance 1.00e-04)
Best objective 8.700000000000e+01, best bound 8.700000000000e+01, gap 0.0000%

Wrote result file '/root/bgw/data/results/2026_03_24_13_54_59_set_vm-4-t1_vm-4-t1_s000_g003_max.sol'

